<number of tasks>
20


<number of equipment>
5


<cycle time>
1000


<investment costs>
1,8324
2,25144
3,28909
4,27729
5,25847


<task times>
1,-1,422,303,372,-1
2,-1,336,318,-1,334
3,-1,352,330,-1,345
4,569,-1,422,-1,-1
5,-1,334,293,-1,336
6,-1,349,314,-1,338
7,-1,411,344,318,-1
8,-1,392,344,362,-1
9,532,-1,310,-1,-1
10,-1,344,298,-1,336
11,-1,338,313,-1,334
12,532,-1,357,-1,-1
13,-1,434,368,-1,374
14,-1,402,309,331,-1
15,-1,391,410,361,-1
16,-1,361,343,-1,361
17,-1,398,319,438,-1
18,-1,511,471,328,-1
19,-1,334,287,-1,303
20,-1,354,357,-1,361


<precedence relations>
1,5
2,6
3,8
4,7
4,9
5,10
6,13
7,11
8,12
10,16
11,14
12,15
14,17
15,18
16,19
16,20


<task types>
1,2
2,3
3,3
4,1
5,3
6,3
7,2
8,2
9,1
10,3
11,3
12,1
13,3
14,2
15,2
16,3
17,2
18,2
19,3
20,3


<line depot>
1,2
2,9
3,1
4,0
5,0


<processing costs>
1,7200
2,14400
3,21600
4,7200
5,7200


<saving costs>
1,832
2,2514
3,2890
4,2772
5,2584


<end>
